NAME: tsp_175
COMMENT: Random TSP instance
TYPE: TSP
DIMENSION: 50
EDGE_WEIGHT_TYPE: EUC_2D
NODE_COORD_SECTION
1 243 821
2 183 80
3 328 405
4 204 630
5 612 522
6 113 559
7 956 596
8 641 838
9 978 323
10 192 501
11 686 663
12 748 522
13 132 98
14 927 93
15 63 0
16 862 960
17 723 677
18 607 46
19 133 843
20 512 442
21 376 819
22 306 503
23 798 116
24 801 994
25 3 829
26 172 41
27 446 800
28 853 541
29 417 178
30 758 947
31 157 989
32 981 283
33 159 408
34 920 29
35 409 186
36 836 253
37 884 532
38 989 262
39 58 996
40 241 707
41 10 500
42 220 299
43 170 486
44 776 346
45 324 489
46 868 351
47 404 26
48 556 294
49 175 180
50 328 246
